Total weight: 1073.6135477300315
Route 1: 0 27 69 50 79 78 34 81 33 3 77 0 
Route 2: 0 28 12 80 68 29 24 54 55 25 26 0 
Route 3: 0 70 10 62 11 19 7 88 31 52 0 
Route 4: 0 6 94 95 97 87 41 67 39 4 0 
Route 5: 0 2 57 15 43 42 13 0 
Route 6: 0 59 96 92 37 98 93 61 84 5 89 0 
Route 7: 0 40 21 72 56 23 75 22 74 73 58 0 
Route 8: 0 18 82 48 47 46 8 45 17 83 60 0 
Route 9: 0 20 66 71 65 35 9 76 0 
Route 10: 0 99 85 44 14 38 86 16 91 100 0 
Route 11: 0 1 51 30 32 90 63 64 49 36 0 
Route 12: 0 53 0 
